NAME: line_100_5
TYPE: TSP
COMMENT: line_100_5
DIMENSION: 100
EDGE_WEIGHT_TYPE: EUC_2D
NODE_COORD_SECTION
1 0.0 460.0
2 0.0 929.0
3 0.0 843.0
4 0.0 313.0
5 0.0 821.0
6 0.0 257.0
7 0.0 401.0
8 0.0 45.0
9 0.0 65.0
10 0.0 718.0
11 0.0 929.0
12 0.0 966.0
13 0.0 307.0
14 0.0 193.0
15 0.0 479.0
16 0.0 618.0
17 0.0 448.0
18 0.0 286.0
19 0.0 86.0
20 0.0 583.0
21 0.0 321.0
22 0.0 851.0
23 0.0 981.0
24 0.0 920.0
25 0.0 909.0
26 0.0 237.0
27 0.0 520.0
28 0.0 75.0
29 0.0 545.0
30 0.0 548.0
31 0.0 223.0
32 0.0 302.0
33 0.0 586.0
34 0.0 510.0
35 0.0 82.0
36 0.0 425.0
37 0.0 175.0
38 0.0 3.0
39 0.0 802.0
40 0.0 677.0
41 0.0 501.0
42 0.0 12.0
43 0.0 815.0
44 0.0 358.0
45 0.0 567.0
46 0.0 548.0
47 0.0 16.0
48 0.0 241.0
49 0.0 200.0
50 0.0 491.0
51 0.0 76.0
52 0.0 970.0
53 0.0 289.0
54 0.0 919.0
55 0.0 694.0
56 0.0 88.0
57 0.0 625.0
58 0.0 818.0
59 0.0 492.0
60 0.0 478.0
61 0.0 272.0
62 0.0 262.0
63 0.0 192.0
64 0.0 137.0
65 0.0 340.0
66 0.0 741.0
67 0.0 735.0
68 0.0 770.0
69 0.0 112.0
70 0.0 261.0
71 0.0 881.0
72 0.0 70.0
73 0.0 849.0
74 0.0 10.0
75 0.0 511.0
76 0.0 404.0
77 0.0 59.0
78 0.0 262.0
79 0.0 58.0
80 0.0 871.0
81 0.0 293.0
82 0.0 579.0
83 0.0 22.0
84 0.0 200.0
85 0.0 358.0
86 0.0 867.0
87 0.0 578.0
88 0.0 206.0
89 0.0 420.0
90 0.0 981.0
91 0.0 357.0
92 0.0 877.0
93 0.0 279.0
94 0.0 235.0
95 0.0 800.0
96 0.0 535.0
97 0.0 108.0
98 0.0 876.0
99 0.0 796.0
100 0.0 962.0
